************************************************************************
file with basedata            : me40_.bas
initial value random generator: 20758
************************************************************************
projects                      :  1
jobs (incl. supersource/sink ):  20
horizon                       :  146
RESOURCES
  - renewable                 :  2   R
  - nonrenewable              :  0   N
  - doubly constrained        :  0   D
************************************************************************
PROJECT INFORMATION:
pronr.  #jobs rel.date duedate tardcost  MPM-Time
    1     18      0       22       15       22
************************************************************************
PRECEDENCE RELATIONS:
jobnr.    #modes  #successors   successors
   1        1          3           2   3   4
   2        3          3           9  10  16
   3        3          3           6   7  12
   4        3          2           5  15
   5        3          2          16  18
   6        3          3           8  11  15
   7        3          3           8  11  19
   8        3          1          17
   9        3          2          12  19
  10        3          3          13  15  18
  11        3          2          13  16
  12        3          2          13  18
  13        3          1          14
  14        3          1          17
  15        3          1          19
  16        3          1          17
  17        3          1          20
  18        3          1          20
  19        3          1          20
  20        1          0        
************************************************************************
REQUESTS/DURATIONS:
jobnr. mode duration  R 1  R 2
------------------------------------------------------------------------
  1      1     0       0    0
  2      1     4       9    7
         2     9       9    1
         3     9       8    2
  3      1     1       4    8
         2     2       3    8
         3     7       3    7
  4      1     6       5    6
         2     8       2    4
         3     8       3    3
  5      1     1       2    6
         2     2       1    5
         3     6       1    4
  6      1     1       8   10
         2     8       7    9
         3    10       6    8
  7      1     1       8    6
         2     4       4    3
         3     4       1    4
  8      1     3       4    5
         2     8       4    4
         3    10       4    1
  9      1     4       4    3
         2     5       3    2
         3     6       2    2
 10      1     1       5    7
         2     8       2    5
         3     8       1    7
 11      1     2      10    9
         2     3      10    7
         3     9      10    5
 12      1     1      10    9
         2     8       9    6
         3    10       9    2
 13      1     6       2    5
         2     8       2    1
         3     8       1    4
 14      1     2       9    5
         2     4       8    4
         3     6       8    3
 15      1     2      10    6
         2     8       6    6
         3     9       4    5
 16      1     5       6    6
         2     8       6    3
         3    10       2    1
 17      1     5       2    8
         2     7       1    4
         3     9       1    1
 18      1     1       6    9
         2     1       9    7
         3     7       4    3
 19      1     7       5    8
         2     9       4    4
         3    10       2    3
 20      1     0       0    0
************************************************************************
RESOURCEAVAILABILITIES:
  R 1  R 2
   30   29
************************************************************************
